25 40
1 2 4
1 6 5
2 3 4
2 7 5
3 4 2
3 8 4
4 5 3
4 9 4
5 10 4
6 7 2
6 11 4
7 8 5
7 12 1
8 9 3
8 13 3
9 10 1
9 14 1
10 15 2
11 12 4
11 16 5
12 13 5
12 17 3
13 14 1
13 18 1
14 15 4
14 19 4
15 20 2
16 17 5
16 21 3
17 18 2
17 22 4
18 19 4
18 23 2
19 20 4
19 24 5
20 25 1
21 22 4
22 23 3
23 24 3
24 25 4
